pymatgen v1.1 with grid density = 1297 / atom
0
Gamma
4 4 3
