La4 Mn4 O12
1.0
5.536700 0.000000 0.000000
0.000000 5.747300 0.000000
0.000000 0.000000 7.692900
La Mn O
4 4 12
direct
0.507800 0.549000 0.250000 La3+
0.992200 0.049000 0.250000 La3+
0.492200 0.451000 0.750000 La3+
0.007800 0.951000 0.750000 La3+
0.000000 0.500000 0.000000 Mn3+
0.500000 0.000000 0.500000 Mn3+
0.000000 0.500000 0.500000 Mn3+
0.500000 0.000000 0.000000 Mn3+
0.425500 0.987400 0.250000 O2-
0.074500 0.487400 0.250000 O2-
0.574500 0.012600 0.750000 O2-
0.925500 0.512600 0.750000 O2-
0.774400 0.806600 0.038400 O2-
0.725600 0.306600 0.461600 O2-
0.225600 0.193400 0.538400 O2-
0.274400 0.693400 0.961600 O2-
0.225600 0.193400 0.961600 O2-
0.274400 0.693400 0.538400 O2-
0.774400 0.806600 0.461600 O2-
0.725600 0.306600 0.038400 O2-
